
Gurobi 12.0.2 (win64) logging started Sun Nov  2 12:18:32 2025

Set parameter LogFile to value "resultados DATA_1_n10m05b2d1\instancia_9_log.txt"
Set parameter TimeLimit to value 1800
Gurobi Optimizer version 12.0.2 build v12.0.2rc0 (win64 - Windows 10.0 (19045.2))

CPU model: Intel(R) Core(TM) i5-6300U CPU @ 2.40GHz, instruction set [SSE2|AVX|AVX2]
Thread count: 2 physical cores, 4 logical processors, using up to 4 threads

Non-default parameters:
TimeLimit  1800

Optimize a model with 805 rows, 2880 columns and 31712 nonzeros
Model fingerprint: 0x0bb1638c
Variable types: 0 continuous, 2880 integer (2880 binary)
Coefficient statistics:
  Matrix range     [1e+00, 1e+00]
  Objective range  [2e-03, 2e-02]
  Bounds range     [1e+00, 1e+00]
  RHS range        [1e+00, 7e+01]
Found heuristic solution: objective 0.8900000
Presolve removed 0 rows and 389 columns
Presolve time: 0.07s
Presolved: 805 rows, 2491 columns, 26875 nonzeros
Variable types: 0 continuous, 2491 integer (2491 binary)

Root relaxation: objective 1.000000e+00, 7969 iterations, 1.07 seconds (1.02 work units)

    Nodes    |    Current Node    |     Objective Bounds      |     Work
 Expl Unexpl |  Obj  Depth IntInf | Incumbent    BestBd   Gap | It/Node Time

H    0     0                       1.0000000    1.00000  0.00%     -    1s
     0     0    1.00000    0    5    1.00000    1.00000  0.00%     -    1s

Explored 1 nodes (9855 simplex iterations) in 1.53 seconds (1.47 work units)
Thread count was 4 (of 4 available processors)

Solution count 2: 1 0.89 
No other solutions better than 1

Optimal solution found (tolerance 1.00e-04)
Best objective 1.000000000000e+00, best bound 1.000000000000e+00, gap 0.0000%
